(set-info :smt-lib-version 2.6)
(set-logic UF)
(set-info :source |Benchmarks from the paper: "Extending Sledgehammer with SMT Solvers" by Jasmin Blanchette, Sascha Bohme, and Lawrence C. Paulson, CADE 2011.  Translated to SMT2 by Andrew Reynolds and Morgan Deters.|)
(set-info :category "industrial")
(set-info :status unknown)
(declare-sort S1 0)
(declare-sort S2 0)
(declare-sort S3 0)
(declare-sort S4 0)
(declare-sort S5 0)
(declare-sort S6 0)
(declare-sort S7 0)
(declare-sort S8 0)
(declare-sort S9 0)
(declare-sort S10 0)
(declare-sort S11 0)
(declare-sort S12 0)
(declare-sort S13 0)
(declare-sort S14 0)
(declare-sort S15 0)
(declare-sort S16 0)
(declare-sort S17 0)
(declare-sort S18 0)
(declare-sort S19 0)
(declare-sort S20 0)
(declare-sort S21 0)
(declare-sort S22 0)
(declare-sort S23 0)
(declare-sort S24 0)
(declare-sort S25 0)
(declare-sort S26 0)
(declare-sort S27 0)
(declare-sort S28 0)
(declare-sort S29 0)
(declare-sort S30 0)
(declare-sort S31 0)
(declare-sort S32 0)
(declare-sort S33 0)
(declare-sort S34 0)
(declare-sort S35 0)
(declare-sort S36 0)
(declare-sort S37 0)
(declare-sort S38 0)
(declare-sort S39 0)
(declare-sort S40 0)
(declare-sort S41 0)
(declare-sort S42 0)
(declare-sort S43 0)
(declare-sort S44 0)
(declare-sort S45 0)
(declare-sort S46 0)
(declare-sort S47 0)
(declare-sort S48 0)
(declare-sort S49 0)
(declare-sort S50 0)
(declare-sort S51 0)
(declare-sort S52 0)
(declare-sort S53 0)
(declare-sort S54 0)
(declare-sort S55 0)
(declare-sort S56 0)
(declare-sort S57 0)
(declare-sort S58 0)
(declare-sort S59 0)
(declare-sort S60 0)
(declare-sort S61 0)
(declare-sort S62 0)
(declare-sort S63 0)
(declare-sort S64 0)
(declare-sort S65 0)
(declare-sort S66 0)
(declare-sort S67 0)
(declare-sort S68 0)
(declare-sort S69 0)
(declare-sort S70 0)
(declare-sort S71 0)
(declare-sort S72 0)
(declare-sort S73 0)
(declare-sort S74 0)
(declare-sort S75 0)
(declare-sort S76 0)
(declare-sort S77 0)
(declare-sort S78 0)
(declare-sort S79 0)
(declare-sort S80 0)
(declare-sort S81 0)
(declare-sort S82 0)
(declare-sort S83 0)
(declare-sort S84 0)
(declare-sort S85 0)
(declare-sort S86 0)
(declare-sort S87 0)
(declare-sort S88 0)
(declare-sort S89 0)
(declare-sort S90 0)
(declare-sort S91 0)
(declare-sort S92 0)
(declare-fun f1 () S1)
(declare-fun f2 () S1)
(declare-fun f3 (S3 S2) S2)
(declare-fun f4 () S3)
(declare-fun f5 (S4 S5) S2)
(declare-fun f6 (S6 S2) S4)
(declare-fun f7 (S7 S2) S6)
(declare-fun f8 () S7)
(declare-fun f9 () S2)
(declare-fun f10 () S5)
(declare-fun f11 () S3)
(declare-fun f12 () S6)
(declare-fun f13 () S5)
(declare-fun f14 (S8 S5) S3)
(declare-fun f15 () S8)
(declare-fun f16 (S10 S2) S1)
(declare-fun f17 (S9) S10)
(declare-fun f18 (S9 S2 S11) S1)
(declare-fun f19 (S12 S2) S8)
(declare-fun f20 () S12)
(declare-fun f21 (S13 S10) S10)
(declare-fun f22 (S10) S13)
(declare-fun f23 (S16 S2) S3)
(declare-fun f24 (S17 S15) S16)
(declare-fun f25 (S18 S14) S17)
(declare-fun f26 () S18)
(declare-fun f27 (S19 S11) S2)
(declare-fun f28 (S14 S2) S19)
(declare-fun f29 (S15 S2) S11)
(declare-fun f30 (S20 S19) S14)
(declare-fun f31 (S21 S16) S20)
(declare-fun f32 () S21)
(declare-fun f33 () S3)
(declare-fun f34 () S10)
(declare-fun f35 (S22 S23) S2)
(declare-fun f36 (S24 S2) S22)
(declare-fun f37 (S25 S16) S24)
(declare-fun f38 () S25)
(declare-fun f39 () S16)
(declare-fun f40 () S3)
(declare-fun f41 () S2)
(declare-fun f42 (S26 S5) S5)
(declare-fun f43 () S26)
(declare-fun f44 () S2)
(declare-fun f45 (S27 S23) S23)
(declare-fun f46 (S28 S3) S27)
(declare-fun f47 () S28)
(declare-fun f48 () S23)
(declare-fun f49 () S2)
(declare-fun f50 () S2)
(declare-fun f51 (S29 S30) S2)
(declare-fun f52 (S31 S2) S29)
(declare-fun f53 (S32 S14) S31)
(declare-fun f54 () S32)
(declare-fun f55 (S33 S23) S30)
(declare-fun f56 (S34 S15) S33)
(declare-fun f57 () S34)
(declare-fun f58 (S35 S30) S23)
(declare-fun f59 (S36 S19) S35)
(declare-fun f60 () S36)
(declare-fun f61 (S37 S11) S9)
(declare-fun f62 (S38 S5) S37)
(declare-fun f63 (S39 S9) S38)
(declare-fun f64 () S39)
(declare-fun f65 () S9)
(declare-fun f66 () S11)
(declare-fun f67 () S11)
(declare-fun f68 (S10 S23) S1)
(declare-fun f69 (S40 S2) S10)
(declare-fun f70 () S40)
(declare-fun f71 () S9)
(declare-fun f72 () S5)
(declare-fun f73 () S11)
(declare-fun f74 (S41 S11) S11)
(declare-fun f75 (S42 S11) S41)
(declare-fun f76 () S42)
(declare-fun f77 (S9 S5) S11)
(declare-fun f78 (S43 S5) S1)
(declare-fun f79 (S9 S23 S30) S1)
(declare-fun f80 (S44 S30) S41)
(declare-fun f81 (S45 S42) S44)
(declare-fun f82 () S45)
(declare-fun f83 () S4)
(declare-fun f84 (S46 S5) S26)
(declare-fun f85 (S48 S47) S5)
(declare-fun f86 (S49 S5) S48)
(declare-fun f87 (S50 S46) S49)
(declare-fun f88 () S50)
(declare-fun f89 (S51 S2) S5)
(declare-fun f90 () S51)
(declare-fun f91 () S7)
(declare-fun f92 (S40 S23 S23) S1)
(declare-fun f93 (S52 S5) S6)
(declare-fun f94 () S52)
(declare-fun f95 (S53 S2) S27)
(declare-fun f96 () S53)
(declare-fun f97 () S46)
(declare-fun f98 (S54 S47) S23)
(declare-fun f99 (S55 S4) S54)
(declare-fun f100 () S55)
(declare-fun f101 (S56 S47) S47)
(declare-fun f102 (S57 S5) S56)
(declare-fun f103 () S57)
(declare-fun f104 (S58 S30) S30)
(declare-fun f105 (S59 S11) S58)
(declare-fun f106 () S59)
(declare-fun f107 (S61 S47) S62)
(declare-fun f108 (S63 S60) S61)
(declare-fun f109 () S63)
(declare-fun f110 (S64 S62) S62)
(declare-fun f111 (S65 S66) S64)
(declare-fun f112 () S65)
(declare-fun f113 (S60 S5) S66)
(declare-fun f114 (S68 S30) S62)
(declare-fun f115 (S69 S67) S68)
(declare-fun f116 () S69)
(declare-fun f117 (S67 S11) S66)
(declare-fun f118 (S71 S47) S72)
(declare-fun f119 (S73 S70) S71)
(declare-fun f120 () S73)
(declare-fun f121 (S74 S72) S72)
(declare-fun f122 (S75 S62) S74)
(declare-fun f123 () S75)
(declare-fun f124 (S70 S5) S62)
(declare-fun f125 (S77 S30) S72)
(declare-fun f126 (S78 S76) S77)
(declare-fun f127 () S78)
(declare-fun f128 (S76 S11) S62)
(declare-fun f129 (S79 S23) S47)
(declare-fun f130 (S80 S51) S79)
(declare-fun f131 () S80)
(declare-fun f132 (S82 S62) S47)
(declare-fun f133 (S83 S81) S82)
(declare-fun f134 () S83)
(declare-fun f135 (S81 S66) S5)
(declare-fun f136 (S85 S62) S30)
(declare-fun f137 (S86 S84) S85)
(declare-fun f138 () S86)
(declare-fun f139 (S84 S66) S11)
(declare-fun f140 (S88 S72) S47)
(declare-fun f141 (S89 S87) S88)
(declare-fun f142 () S89)
(declare-fun f143 (S87 S62) S5)
(declare-fun f144 (S91 S72) S30)
(declare-fun f145 (S92 S90) S91)
(declare-fun f146 () S92)
(declare-fun f147 (S90 S62) S11)
(assert (not (= f1 f2)))
(assert (forall ((?v0 S2)) (= (f3 f4 ?v0) (f5 (f6 (f7 f8 ?v0) f9) f10))))
(assert (forall ((?v0 S2)) (= (f3 f11 ?v0) (f5 (f6 f12 ?v0) f13))))
(assert (forall ((?v0 S5) (?v1 S2)) (= (f3 (f14 f15 ?v0) ?v1) (f5 (f6 f12 ?v1) ?v0))))
(assert (forall ((?v0 S9) (?v1 S2)) (= (= (f16 (f17 ?v0) ?v1) f1) (exists ((?v2 S11)) (= (f18 ?v0 ?v1 ?v2) f1)))))
(assert (forall ((?v0 S2) (?v1 S5) (?v2 S2)) (= (f3 (f14 (f19 f20 ?v0) ?v1) ?v2) (f5 (f6 (f7 f8 ?v2) ?v0) ?v1))))
(assert (forall ((?v0 S10) (?v1 S10) (?v2 S2)) (= (= (f16 (f21 (f22 ?v0) ?v1) ?v2) f1) (and (= (f16 ?v0 ?v2) f1) (= (f16 ?v1 ?v2) f1)))))
(assert (forall ((?v0 S14) (?v1 S15) (?v2 S2) (?v3 S2)) (= (f3 (f23 (f24 (f25 f26 ?v0) ?v1) ?v2) ?v3) (f27 (f28 ?v0 ?v2) (f29 ?v1 ?v3)))))
(assert (forall ((?v0 S16) (?v1 S19) (?v2 S2) (?v3 S11)) (= (f27 (f28 (f30 (f31 f32 ?v0) ?v1) ?v2) ?v3) (f3 (f23 ?v0 ?v2) (f27 ?v1 ?v3)))))
(assert (forall ((?v0 S2)) (= (f3 f33 ?v0) ?v0)))
(assert (not (= (f16 f34 (f35 (f36 (f37 f38 f39) (f3 (f23 f39 (f3 f40 (f5 (f6 (f7 f8 f41) (f5 (f6 f12 f9) f13)) (f42 f43 f10)))) (f5 (f6 (f7 f8 f44) f9) f10))) (f45 (f46 f47 f4) f48))) f1)))
(assert (= (f16 f34 f49) f1))
(assert (= (f16 f34 f50) f1))
(assert (= (f16 f34 f44) f1))
(assert (= (f16 f34 f9) f1))
(assert (= (f16 f34 (f35 (f36 (f37 f38 f39) (f5 (f6 (f7 f8 f41) f44) f13)) f48)) f1))
(assert (forall ((?v0 S2) (?v1 S5)) (=> (= (f16 f34 ?v0) f1) (= (f16 f34 (f5 (f6 f12 ?v0) ?v1)) f1))))
(assert (forall ((?v0 S2) (?v1 S2) (?v2 S23)) (let ((?v_0 (f37 f38 f39))) (=> (= (f16 f34 (f35 (f36 ?v_0 (f5 (f6 (f7 f8 ?v0) ?v1) f13)) ?v2)) f1) (=> (= (f16 f34 ?v1) f1) (= (f16 f34 (f35 (f36 ?v_0 (f3 (f23 f39 (f3 f40 ?v0)) ?v1)) ?v2)) f1))))))
(assert (forall ((?v0 S2)) (=> (= (f16 f34 ?v0) f1) (= (f16 f34 (f3 f40 ?v0)) f1))))
(assert (forall ((?v0 S2) (?v1 S23) (?v2 S5)) (let ((?v_0 (f37 f38 f39))) (= (f5 (f6 f12 (f35 (f36 ?v_0 ?v0) ?v1)) ?v2) (f35 (f36 ?v_0 (f5 (f6 f12 ?v0) ?v2)) (f45 (f46 f47 (f14 f15 ?v2)) ?v1))))))
(assert (forall ((?v0 S2) (?v1 S23) (?v2 S2) (?v3 S5)) (let ((?v_0 (f37 f38 f39))) (= (f5 (f6 (f7 f8 (f35 (f36 ?v_0 ?v0) ?v1)) ?v2) ?v3) (f35 (f36 ?v_0 (f5 (f6 (f7 f8 ?v0) ?v2) ?v3)) (f45 (f46 f47 (f14 (f19 f20 ?v2) ?v3)) ?v1))))))
(assert (forall ((?v0 S2) (?v1 S23) (?v2 S2) (?v3 S23)) (let ((?v_0 (f37 f38 f39))) (= (= (f35 (f36 ?v_0 (f3 f40 ?v0)) ?v1) (f35 (f36 ?v_0 (f3 f40 ?v2)) ?v3)) (and (= ?v0 ?v2) (= ?v1 ?v3))))))
(assert (forall ((?v0 S14) (?v1 S2) (?v2 S15) (?v3 S23)) (= (f51 (f52 (f53 f54 ?v0) ?v1) (f55 (f56 f57 ?v2) ?v3)) (f35 (f36 (f37 f38 (f24 (f25 f26 ?v0) ?v2)) ?v1) ?v3))))
(assert (forall ((?v0 S16) (?v1 S2) (?v2 S19) (?v3 S30)) (= (f35 (f36 (f37 f38 ?v0) ?v1) (f58 (f59 f60 ?v2) ?v3)) (f51 (f52 (f53 f54 (f30 (f31 f32 ?v0) ?v2)) ?v1) ?v3))))
(assert (forall ((?v0 S2) (?v1 S5) (?v2 S2)) (= (f5 (f6 (f7 f8 (f5 (f6 f12 ?v0) ?v1)) ?v2) ?v1) ?v0)))
(assert (forall ((?v0 S2) (?v1 S2) (?v2 S5)) (= (f5 (f6 f12 (f3 (f23 f39 ?v0) ?v1)) ?v2) (f3 (f23 f39 (f5 (f6 f12 ?v0) ?v2)) (f5 (f6 f12 ?v1) ?v2)))))
(assert (forall ((?v0 S2) (?v1 S2) (?v2 S2) (?v3 S5)) (= (f5 (f6 (f7 f8 (f3 (f23 f39 ?v0) ?v1)) ?v2) ?v3) (f3 (f23 f39 (f5 (f6 (f7 f8 ?v0) ?v2) ?v3)) (f5 (f6 (f7 f8 ?v1) ?v2) ?v3)))))
(assert (forall ((?v0 S2) (?v1 S2) (?v2 S2)) (not (= (f3 f40 ?v0) (f3 (f23 f39 ?v1) ?v2)))))
(assert (forall ((?v0 S2) (?v1 S2) (?v2 S2)) (not (= (f3 (f23 f39 ?v0) ?v1) (f3 f40 ?v2)))))
(assert (forall ((?v0 S2) (?v1 S23) (?v2 S2)) (let ((?v_0 (f37 f38 f39))) (= (= (f35 (f36 ?v_0 ?v0) ?v1) (f35 (f36 ?v_0 ?v2) ?v1)) (= ?v0 ?v2)))))
(assert (forall ((?v0 S2) (?v1 S2) (?v2 S2) (?v3 S2)) (= (= (f3 (f23 f39 ?v0) ?v1) (f3 (f23 f39 ?v2) ?v3)) (and (= ?v0 ?v2) (= ?v1 ?v3)))))
(assert (forall ((?v0 S2) (?v1 S2)) (= (= (f3 f40 ?v0) (f3 f40 ?v1)) (= ?v0 ?v1))))
(assert (forall ((?v0 S23)) (= (f45 (f46 f47 f33) ?v0) ?v0)))
(assert (forall ((?v0 S5)) (=> (= (f42 f43 ?v0) f13) false)))
(assert (forall ((?v0 S5)) (=> (= f13 (f42 f43 ?v0)) false)))
(assert (forall ((?v0 S5)) (not (= (f42 f43 ?v0) f13))))
(assert (forall ((?v0 S5)) (not (= (f42 f43 ?v0) f13))))
(assert (forall ((?v0 S5)) (not (= f13 (f42 f43 ?v0)))))
(assert (forall ((?v0 S5)) (not (= f13 (f42 f43 ?v0)))))
(assert (= (f18 (f61 (f62 (f63 f64 f65) f10) f66) (f35 (f36 (f37 f38 f39) (f3 (f23 f39 (f3 f40 f41)) f44)) f48) f67) f1))
(assert (forall ((?v0 S23)) (=> (= (f68 f34 ?v0) f1) (= (f68 f34 (f45 (f46 f47 f11) ?v0)) f1))))
(assert (forall ((?v0 S9) (?v1 S5) (?v2 S11) (?v3 S2)) (let ((?v_0 (f35 (f36 (f37 f38 f39) (f5 (f6 (f7 f8 f41) f44) f13)) f48))) (=> (= (f18 (f61 (f62 (f63 f64 ?v0) ?v1) f66) ?v_0 ?v2) f1) (=> (= (f16 f34 ?v3) f1) (=> (= (f18 ?v0 ?v3 f66) f1) (= (f16 f34 (f5 (f6 (f7 f8 ?v_0) ?v3) ?v1)) f1)))))))
(assert (forall ((?v0 S2) (?v1 S2)) (= (f16 (f69 f70 (f3 (f23 f39 (f3 f40 ?v0)) ?v1)) (f5 (f6 (f7 f8 ?v0) ?v1) f13)) f1)))
(assert (= (f18 f65 f9 f66) f1))
(assert (= (f18 f71 f50 f66) f1))
(assert (forall ((?v0 S2) (?v1 S2) (?v2 S2)) (=> (= (f16 (f69 f70 ?v0) ?v1) f1) (= (f16 (f69 f70 (f3 (f23 f39 ?v0) ?v2)) (f3 (f23 f39 ?v1) ?v2)) f1))))
(assert (forall ((?v0 S2) (?v1 S2) (?v2 S2)) (let ((?v_0 (f23 f39 ?v2))) (=> (= (f16 (f69 f70 ?v0) ?v1) f1) (= (f16 (f69 f70 (f3 ?v_0 ?v0)) (f3 ?v_0 ?v1)) f1)))))
(assert (forall ((?v0 S2) (?v1 S2)) (=> (= (f16 (f69 f70 ?v0) ?v1) f1) (= (f16 (f69 f70 (f3 f40 ?v0)) (f3 f40 ?v1)) f1))))
(assert (forall ((?v0 S9) (?v1 S5) (?v2 S11) (?v3 S2)) (=> (= (f18 (f61 (f62 (f63 f64 ?v0) ?v1) f66) f44 ?v2) f1) (=> (= (f16 f34 ?v3) f1) (=> (= (f18 ?v0 ?v3 f66) f1) (= (f16 f34 (f5 (f6 (f7 f8 f44) ?v3) ?v1)) f1))))))
(assert (= (f18 (f61 (f62 (f63 f64 f71) f72) f66) (f35 (f36 (f37 f38 f39) (f3 (f23 f39 (f3 f40 f41)) f44)) f48) f73) f1))
(assert (forall ((?v0 S10) (?v1 S10) (?v2 S23)) (= (= (f68 (f21 (f22 ?v0) ?v1) ?v2) f1) (and (= (f68 ?v0 ?v2) f1) (= (f68 ?v1 ?v2) f1)))))
(assert (forall ((?v0 S2) (?v1 S2) (?v2 S2) (?v3 S5)) (=> (= (f16 (f69 f70 ?v0) ?v1) f1) (= (f16 (f69 f70 (f5 (f6 (f7 f8 ?v0) ?v2) ?v3)) (f5 (f6 (f7 f8 ?v1) ?v2) ?v3)) f1))))
(assert (forall ((?v0 S2) (?v1 S2) (?v2 S5)) (=> (= (f16 (f69 f70 ?v0) ?v1) f1) (= (f16 (f69 f70 (f5 (f6 f12 ?v0) ?v2)) (f5 (f6 f12 ?v1) ?v2)) f1))))
(assert (forall ((?v0 S5)) (not (= ?v0 (f42 f43 ?v0)))))
(assert (forall ((?v0 S5)) (not (= (f42 f43 ?v0) ?v0))))
(assert (forall ((?v0 S5) (?v1 S5)) (= (= (f42 f43 ?v0) (f42 f43 ?v1)) (= ?v0 ?v1))))
(assert (forall ((?v0 S5) (?v1 S5)) (=> (= (f42 f43 ?v0) (f42 f43 ?v1)) (= ?v0 ?v1))))
(assert (forall ((?v0 S11) (?v1 S11) (?v2 S2) (?v3 S9) (?v4 S5) (?v5 S11) (?v6 S2)) (=> (= f66 (f74 (f75 f76 ?v0) ?v1)) (=> (= (f16 f34 ?v2) f1) (=> (= (f18 (f61 (f62 (f63 f64 ?v3) ?v4) ?v0) ?v2 ?v5) f1) (=> (= (f16 f34 ?v6) f1) (=> (= (f18 ?v3 ?v6 ?v0) f1) (= (f16 f34 (f5 (f6 (f7 f8 ?v2) ?v6) ?v4)) f1))))))))
(assert (forall ((?v0 S11) (?v1 S11) (?v2 S2) (?v3 S9) (?v4 S5) (?v5 S11) (?v6 S2)) (=> (= f66 (f74 (f75 f76 ?v0) ?v1)) (=> (= (f16 f34 ?v2) f1) (=> (= (f18 (f61 (f62 (f63 f64 ?v3) ?v4) ?v1) ?v2 ?v5) f1) (=> (= (f16 f34 ?v6) f1) (=> (= (f18 ?v3 ?v6 ?v1) f1) (= (f16 f34 (f5 (f6 (f7 f8 ?v2) ?v6) ?v4)) f1))))))))
(assert (forall ((?v0 S9) (?v1 S2) (?v2 S11) (?v3 S5) (?v4 S11)) (=> (= (f18 ?v0 ?v1 ?v2) f1) (= (f18 (f61 (f62 (f63 f64 ?v0) ?v3) ?v4) (f5 (f6 f12 ?v1) ?v3) ?v2) f1))))
(assert (forall ((?v0 S2) (?v1 S2)) (=> (= (f16 (f69 f70 (f3 f40 ?v0)) ?v1) f1) (=> (forall ((?v2 S2)) (=> (= ?v1 (f3 f40 ?v2)) (=> (= (f16 (f69 f70 ?v0) ?v2) f1) false))) false))))
(assert (forall ((?v0 S9) (?v1 S2) (?v2 S11) (?v3 S9) (?v4 S2) (?v5 S11) (?v6 S5)) (=> (= (f18 ?v0 ?v1 ?v2) f1) (=> (= (f18 ?v3 ?v4 ?v5) f1) (=> (= ?v0 (f61 (f62 (f63 f64 ?v3) ?v6) ?v5)) (= (f18 ?v3 (f5 (f6 (f7 f8 ?v1) ?v4) ?v6) ?v2) f1))))))
(assert (forall ((?v0 S2) (?v1 S2) (?v2 S23)) (let ((?v_0 (f37 f38 f39))) (=> (= (f16 (f69 f70 ?v0) ?v1) f1) (= (f16 (f69 f70 (f35 (f36 ?v_0 ?v0) ?v2)) (f35 (f36 ?v_0 ?v1) ?v2)) f1)))))
(assert (forall ((?v0 S9) (?v1 S5) (?v2 S11) (?v3 S11)) (let ((?v_0 (f63 f64 ?v0))) (= (f61 (f62 (f63 f64 (f61 (f62 ?v_0 ?v1) ?v2)) f13) ?v3) (f61 (f62 (f63 f64 (f61 (f62 ?v_0 f13) ?v3)) (f42 f43 ?v1)) ?v2)))))
(assert (forall ((?v0 S2) (?v1 S2) (?v2 S2)) (=> (= (f16 (f69 f70 (f3 (f23 f39 ?v0) ?v1)) ?v2) f1) (=> (forall ((?v3 S2)) (=> (= ?v2 (f5 (f6 (f7 f8 ?v3) ?v1) f13)) (=> (= ?v0 (f3 f40 ?v3)) false))) (=> (forall ((?v3 S2)) (=> (= ?v2 (f3 (f23 f39 ?v3) ?v1)) (=> (= (f16 (f69 f70 ?v0) ?v3) f1) false))) (=> (forall ((?v3 S2)) (=> (= ?v2 (f3 (f23 f39 ?v0) ?v3)) (=> (= (f16 (f69 f70 ?v1) ?v3) f1) false))) false))))))
(assert (forall ((?v0 S5)) (=> (not (= ?v0 f13)) (exists ((?v1 S5)) (= ?v0 (f42 f43 ?v1))))))
(assert (forall ((?v0 S9) (?v1 S2) (?v2 S11) (?v3 S11) (?v4 S2)) (=> (= (f18 ?v0 ?v1 (f74 (f75 f76 ?v2) ?v3)) f1) (=> (= (f18 ?v0 ?v4 ?v2) f1) (= (f18 ?v0 (f3 (f23 f39 ?v1) ?v4) ?v3) f1)))))
(assert (forall ((?v0 S9) (?v1 S11) (?v2 S2) (?v3 S11)) (=> (= (f18 (f61 (f62 (f63 f64 ?v0) f13) ?v1) ?v2 ?v3) f1) (= (f18 ?v0 (f3 f40 ?v2) (f74 (f75 f76 ?v1) ?v3)) f1))))
(assert (forall ((?v0 S11) (?v1 S11) (?v2 S11) (?v3 S11)) (= (= (f74 (f75 f76 ?v0) ?v1) (f74 (f75 f76 ?v2) ?v3)) (and (= ?v0 ?v2) (= ?v1 ?v3)))))
(assert (forall ((?v0 S5) (?v1 S5) (?v2 S9) (?v3 S11)) (=> (= ?v0 ?v1) (= (f77 (f61 (f62 (f63 f64 ?v2) ?v0) ?v3) ?v1) ?v3))))
(assert (forall ((?v0 S9) (?v1 S2) (?v2 S11) (?v3 S2)) (=> (= (f18 ?v0 ?v1 ?v2) f1) (=> (= (f16 (f69 f70 ?v1) ?v3) f1) (= (f18 ?v0 ?v3 ?v2) f1)))))
(assert (forall ((?v0 S9) (?v1 S2) (?v2 S11)) (=> (= (f18 ?v0 (f3 f40 ?v1) ?v2) f1) (=> (forall ((?v3 S11) (?v4 S11)) (=> (= ?v2 (f74 (f75 f76 ?v3) ?v4)) (=> (= (f18 (f61 (f62 (f63 f64 ?v0) f13) ?v3) ?v1 ?v4) f1) false))) false))))
(assert (forall ((?v0 S9) (?v1 S2) (?v2 S2) (?v3 S11)) (=> (= (f18 ?v0 (f3 (f23 f39 ?v1) ?v2) ?v3) f1) (=> (forall ((?v4 S11)) (=> (= (f18 ?v0 ?v1 (f74 (f75 f76 ?v4) ?v3)) f1) (=> (= (f18 ?v0 ?v2 ?v4) f1) false))) false))))
(assert (forall ((?v0 S9) (?v1 S2) (?v2 S11)) (=> (= (f18 ?v0 (f3 f40 ?v1) ?v2) f1) (=> (forall ((?v3 S11) (?v4 S11)) (=> (= (f18 (f61 (f62 (f63 f64 ?v0) f13) ?v3) ?v1 ?v4) f1) false)) false))))
(assert (forall ((?v0 S5)) (=> (=> (= ?v0 f13) false) (=> (forall ((?v1 S5)) (=> (= ?v0 (f42 f43 ?v1)) false)) false))))
(assert (forall ((?v0 S43) (?v1 S5)) (=> (= (f78 ?v0 ?v1) f1) (=> (forall ((?v2 S5)) (=> (= (f78 ?v0 (f42 f43 ?v2)) f1) (= (f78 ?v0 ?v2) f1))) (= (f78 ?v0 f13) f1)))))
(assert (forall ((?v0 S43) (?v1 S5)) (=> (= (f78 ?v0 f13) f1) (=> (forall ((?v2 S5)) (=> (= (f78 ?v0 ?v2) f1) (= (f78 ?v0 (f42 f43 ?v2)) f1))) (= (f78 ?v0 ?v1) f1)))))
(assert (forall ((?v0 S9) (?v1 S2) (?v2 S11) (?v3 S5) (?v4 S23) (?v5 S30)) (=> (= (f18 ?v0 ?v1 ?v2) f1) (=> (= (f79 (f61 (f62 (f63 f64 ?v0) ?v3) ?v2) ?v4 ?v5) f1) (= (f79 ?v0 (f45 (f46 f47 (f14 (f19 f20 ?v1) ?v3)) ?v4) ?v5) f1)))))
(assert (forall ((?v0 S9) (?v1 S23) (?v2 S30) (?v3 S5) (?v4 S11)) (=> (= (f79 ?v0 ?v1 ?v2) f1) (= (f79 (f61 (f62 (f63 f64 ?v0) ?v3) ?v4) (f45 (f46 f47 (f14 f15 ?v3)) ?v1) ?v2) f1))))
(assert (forall ((?v0 S9) (?v1 S2) (?v2 S30) (?v3 S11) (?v4 S23)) (=> (= (f18 ?v0 ?v1 (f74 (f80 (f81 f82 f76) ?v2) ?v3)) f1) (=> (= (f79 ?v0 ?v4 ?v2) f1) (= (f18 ?v0 (f35 (f36 (f37 f38 f39) ?v1) ?v4) ?v3) f1)))))
(assert (forall ((?v0 S23) (?v1 S5)) (=> (= (f68 f34 ?v0) f1) (= (f16 f34 (f35 (f36 (f37 f38 f39) (f5 f83 ?v1)) ?v0)) f1))))
(assert (forall ((?v0 S9) (?v1 S2) (?v2 S23) (?v3 S11)) (=> (= (f18 ?v0 (f35 (f36 (f37 f38 f39) ?v1) ?v2) ?v3) f1) (=> (forall ((?v4 S30)) (=> (= (f18 ?v0 ?v1 (f74 (f80 (f81 f82 f76) ?v4) ?v3)) f1) (=> (= (f79 ?v0 ?v2 ?v4) f1) false))) false))))
(assert (forall ((?v0 S9) (?v1 S2) (?v2 S23) (?v3 S11)) (=> (= (f18 ?v0 (f35 (f36 (f37 f38 f39) ?v1) ?v2) ?v3) f1) (exists ((?v4 S30)) (and (= (f18 ?v0 ?v1 (f74 (f80 (f81 f82 f76) ?v4) ?v3)) f1) (= (f79 ?v0 ?v2 ?v4) f1))))))
(assert (forall ((?v0 S16) (?v1 S2) (?v2 S23) (?v3 S2)) (let ((?v_0 (f37 f38 ?v0))) (=> (forall ((?v4 S2) (?v5 S2) (?v6 S2)) (let ((?v_1 (f23 ?v0 ?v6))) (= (f3 (f23 ?v0 (f3 ?v_1 ?v4)) ?v5) (f3 (f23 ?v0 (f3 ?v_1 ?v5)) ?v4)))) (= (f3 (f23 ?v0 (f35 (f36 ?v_0 ?v1) ?v2)) ?v3) (f35 (f36 ?v_0 (f3 (f23 ?v0 ?v1) ?v3)) ?v2))))))
(assert (forall ((?v0 S46) (?v1 S5) (?v2 S47) (?v3 S5)) (let ((?v_0 (f87 f88 ?v0))) (=> (forall ((?v4 S5) (?v5 S5) (?v6 S5)) (let ((?v_1 (f84 ?v0 ?v6))) (= (f42 (f84 ?v0 (f42 ?v_1 ?v4)) ?v5) (f42 (f84 ?v0 (f42 ?v_1 ?v5)) ?v4)))) (= (f42 (f84 ?v0 (f85 (f86 ?v_0 ?v1) ?v2)) ?v3) (f85 (f86 ?v_0 (f42 (f84 ?v0 ?v1) ?v3)) ?v2))))))
(assert (forall ((?v0 S2)) (= (= (f16 f34 ?v0) f1) (or (exists ((?v1 S23) (?v2 S5)) (and (= ?v0 (f35 (f36 (f37 f38 f39) (f5 f83 ?v2)) ?v1)) (= (f68 f34 ?v1) f1))) (or (exists ((?v1 S2)) (and (= ?v0 (f3 f40 ?v1)) (= (f16 f34 ?v1) f1))) (exists ((?v1 S2) (?v2 S2) (?v3 S23)) (let ((?v_0 (f37 f38 f39))) (and (= ?v0 (f35 (f36 ?v_0 (f3 (f23 f39 (f3 f40 ?v1)) ?v2)) ?v3)) (and (= (f16 f34 (f35 (f36 ?v_0 (f5 (f6 (f7 f8 ?v1) ?v2) f13)) ?v3)) f1) (= (f16 f34 ?v2) f1))))))))))
(assert (forall ((?v0 S9) (?v1 S5) (?v2 S11)) (=> (= (f77 ?v0 ?v1) ?v2) (= (f18 ?v0 (f5 f83 ?v1) ?v2) f1))))
(assert (forall ((?v0 S9) (?v1 S5) (?v2 S11)) (=> (= (f18 ?v0 (f5 f83 ?v1) ?v2) f1) (=> (=> (= (f77 ?v0 ?v1) ?v2) false) false))))
(assert (forall ((?v0 S5) (?v1 S2)) (=> (= (f16 (f69 f70 (f5 f83 ?v0)) ?v1) f1) false)))
(assert (forall ((?v0 S5) (?v1 S5)) (= (= (f5 f83 ?v0) (f5 f83 ?v1)) (= ?v0 ?v1))))
(assert (forall ((?v0 S2) (?v1 S2) (?v2 S5)) (not (= (f3 (f23 f39 ?v0) ?v1) (f5 f83 ?v2)))))
(assert (forall ((?v0 S5) (?v1 S2) (?v2 S2)) (not (= (f5 f83 ?v0) (f3 (f23 f39 ?v1) ?v2)))))
(assert (forall ((?v0 S5) (?v1 S2)) (not (= (f5 f83 ?v0) (f3 f40 ?v1)))))
(assert (forall ((?v0 S2) (?v1 S5)) (not (= (f3 f40 ?v0) (f5 f83 ?v1)))))
(assert (forall ((?v0 S5) (?v1 S2)) (= (f5 (f6 (f7 f8 (f5 f83 ?v0)) ?v1) ?v0) ?v1)))
(assert (forall ((?v0 S5)) (= (f16 f34 (f5 f83 ?v0)) f1)))
(assert (forall ((?v0 S5) (?v1 S23) (?v2 S5) (?v3 S23)) (let ((?v_0 (f37 f38 f39))) (= (= (f35 (f36 ?v_0 (f5 f83 ?v0)) ?v1) (f35 (f36 ?v_0 (f5 f83 ?v2)) ?v3)) (and (= ?v0 ?v2) (= ?v1 ?v3))))))
(assert (forall ((?v0 S2) (?v1 S5)) (=> (= (f16 f34 ?v0) f1) (= (f16 f34 (f3 (f23 f39 ?v0) (f5 f83 ?v1))) f1))))
(assert (forall ((?v0 S2) (?v1 S5) (?v2 S5)) (=> (= (f16 f34 ?v0) f1) (= (f16 f34 (f5 (f6 (f7 f8 ?v0) (f5 f83 ?v1)) ?v2)) f1))))
(assert (forall ((?v0 S9) (?v1 S5) (?v2 S23) (?v3 S11) (?v4 S11)) (let ((?v_0 (f35 (f36 (f37 f38 f39) (f5 f83 ?v1)) ?v2))) (=> (= (f18 ?v0 ?v_0 ?v3) f1) (=> (= (f18 ?v0 ?v_0 ?v4) f1) (= ?v3 ?v4))))))
(assert (forall ((?v0 S5) (?v1 S23) (?v2 S2) (?v3 S23)) (let ((?v_0 (f37 f38 f39))) (not (= (f35 (f36 ?v_0 (f5 f83 ?v0)) ?v1) (f35 (f36 ?v_0 (f3 f40 ?v2)) ?v3))))))
(assert (forall ((?v0 S2) (?v1 S2) (?v2 S5) (?v3 S23)) (not (= (f3 (f23 f39 (f3 f40 ?v0)) ?v1) (f35 (f36 (f37 f38 f39) (f5 f83 ?v2)) ?v3)))))
(assert (forall ((?v0 S9) (?v1 S5) (?v2 S23) (?v3 S23) (?v4 S11) (?v5 S30) (?v6 S11)) (let ((?v_0 (f37 f38 f39))) (let ((?v_1 (f35 (f36 ?v_0 (f5 f83 ?v1)) ?v2))) (=> (= (f18 ?v0 (f35 (f36 ?v_0 ?v_1) ?v3) ?v4) f1) (=> (= (f79 ?v0 ?v2 ?v5) f1) (=> (= (f18 ?v0 ?v_1 ?v6) f1) (exists ((?v7 S30)) (and (= ?v6 (f74 (f80 (f81 f82 f76) ?v7) ?v4)) (= (f79 ?v0 ?v3 ?v7) f1))))))))))
(assert (forall ((?v0 S9) (?v1 S5) (?v2 S23) (?v3 S11)) (=> (= (f18 ?v0 (f35 (f36 (f37 f38 f39) (f5 f83 ?v1)) ?v2) ?v3) f1) (=> (forall ((?v4 S30)) (=> (= (f18 ?v0 (f5 f83 ?v1) (f74 (f80 (f81 f82 f76) ?v4) ?v3)) f1) (=> (= (f79 ?v0 ?v2 ?v4) f1) false))) false))))
(assert (forall ((?v0 S5)) (= (f89 f90 (f5 f83 ?v0)) f13)))
(assert (forall ((?v0 S2) (?v1 S2)) (= (f5 (f6 (f7 f91 ?v0) ?v1) f13) (f5 (f6 (f7 f8 ?v0) ?v1) f13))))
(assert (forall ((?v0 S9) (?v1 S23) (?v2 S30)) (=> (= (f79 ?v0 ?v1 ?v2) f1) (= (f68 (f17 ?v0) ?v1) f1))))
(assert (forall ((?v0 S23) (?v1 S23) (?v2 S2)) (let ((?v_0 (f36 (f37 f38 f39) ?v2))) (=> (= (f92 f70 ?v0 ?v1) f1) (= (f16 (f69 f70 (f35 ?v_0 ?v0)) (f35 ?v_0 ?v1)) f1)))))
(assert (forall ((?v0 S2) (?v1 S2) (?v2 S2) (?v3 S5)) (= (f5 (f6 (f7 f91 (f3 (f23 f39 ?v0) ?v1)) ?v2) ?v3) (f3 (f23 f39 (f5 (f6 (f7 f91 ?v0) ?v2) ?v3)) (f5 (f6 (f7 f91 ?v1) ?v2) ?v3)))))
(assert (forall ((?v0 S5) (?v1 S23) (?v2 S2)) (=> (= (f16 (f69 f70 (f35 (f36 (f37 f38 f39) (f5 f83 ?v0)) ?v1)) ?v2) f1) (exists ((?v3 S23)) (and (= (f92 f70 ?v1 ?v3) f1) (= ?v2 (f35 (f36 (f37 f38 f39) (f5 f83 ?v0)) ?v3)))))))
(assert (forall ((?v0 S2) (?v1 S2) (?v2 S5)) (= (f5 (f6 (f7 f91 ?v0) ?v1) ?v2) (f5 (f6 (f7 f8 ?v0) (f5 (f6 (f93 f94 ?v2) ?v1) f13)) ?v2))))
(assert (forall ((?v0 S2) (?v1 S23) (?v2 S2)) (=> (= (f16 (f69 f70 (f35 (f36 (f37 f38 f39) ?v0) ?v1)) ?v2) f1) (=> (forall ((?v3 S2)) (=> (= (f16 (f69 f70 ?v0) ?v3) f1) (=> (= ?v2 (f35 (f36 (f37 f38 f39) ?v3) ?v1)) false))) (=> (forall ((?v3 S23)) (=> (= (f92 f70 ?v1 ?v3) f1) (=> (= ?v2 (f35 (f36 (f37 f38 f39) ?v0) ?v3)) false))) (=> (forall ((?v3 S2) (?v4 S2) (?v5 S23)) (=> (= ?v0 (f3 f40 ?v3)) (=> (= ?v1 (f45 (f95 f96 ?v4) ?v5)) (=> (= ?v2 (f35 (f36 (f37 f38 f39) (f5 (f6 (f7 f8 ?v3) ?v4) f13)) ?v5)) false)))) false))))))
(assert (forall ((?v0 S2)) (= (f89 f90 (f3 f40 ?v0)) (f42 (f84 f97 (f89 f90 ?v0)) (f42 f43 f13)))))
(assert (forall ((?v0 S3) (?v1 S2) (?v2 S23)) (let ((?v_0 (f46 f47 ?v0))) (= (f45 ?v_0 (f45 (f95 f96 ?v1) ?v2)) (f45 (f95 f96 (f3 ?v0 ?v1)) (f45 ?v_0 ?v2))))))
(assert (forall ((?v0 S4) (?v1 S5) (?v2 S47)) (let ((?v_0 (f99 f100 ?v0))) (= (f98 ?v_0 (f101 (f102 f103 ?v1) ?v2)) (f45 (f95 f96 (f5 ?v0 ?v1)) (f98 ?v_0 ?v2))))))
(assert (forall ((?v0 S19) (?v1 S11) (?v2 S30)) (let ((?v_0 (f59 f60 ?v0))) (= (f58 ?v_0 (f104 (f105 f106 ?v1) ?v2)) (f45 (f95 f96 (f27 ?v0 ?v1)) (f58 ?v_0 ?v2))))))
(assert (forall ((?v0 S60) (?v1 S5) (?v2 S47)) (let ((?v_0 (f108 f109 ?v0))) (= (f107 ?v_0 (f101 (f102 f103 ?v1) ?v2)) (f110 (f111 f112 (f113 ?v0 ?v1)) (f107 ?v_0 ?v2))))))
(assert (forall ((?v0 S67) (?v1 S11) (?v2 S30)) (let ((?v_0 (f115 f116 ?v0))) (= (f114 ?v_0 (f104 (f105 f106 ?v1) ?v2)) (f110 (f111 f112 (f117 ?v0 ?v1)) (f114 ?v_0 ?v2))))))
(assert (forall ((?v0 S70) (?v1 S5) (?v2 S47)) (let ((?v_0 (f119 f120 ?v0))) (= (f118 ?v_0 (f101 (f102 f103 ?v1) ?v2)) (f121 (f122 f123 (f124 ?v0 ?v1)) (f118 ?v_0 ?v2))))))
(assert (forall ((?v0 S76) (?v1 S11) (?v2 S30)) (let ((?v_0 (f126 f127 ?v0))) (= (f125 ?v_0 (f104 (f105 f106 ?v1) ?v2)) (f121 (f122 f123 (f128 ?v0 ?v1)) (f125 ?v_0 ?v2))))))
(assert (forall ((?v0 S51) (?v1 S2) (?v2 S23)) (let ((?v_0 (f130 f131 ?v0))) (= (f129 ?v_0 (f45 (f95 f96 ?v1) ?v2)) (f101 (f102 f103 (f89 ?v0 ?v1)) (f129 ?v_0 ?v2))))))
(assert (forall ((?v0 S15) (?v1 S2) (?v2 S23)) (let ((?v_0 (f56 f57 ?v0))) (= (f55 ?v_0 (f45 (f95 f96 ?v1) ?v2)) (f104 (f105 f106 (f29 ?v0 ?v1)) (f55 ?v_0 ?v2))))))
(assert (forall ((?v0 S81) (?v1 S66) (?v2 S62)) (let ((?v_0 (f133 f134 ?v0))) (= (f132 ?v_0 (f110 (f111 f112 ?v1) ?v2)) (f101 (f102 f103 (f135 ?v0 ?v1)) (f132 ?v_0 ?v2))))))
(assert (forall ((?v0 S84) (?v1 S66) (?v2 S62)) (let ((?v_0 (f137 f138 ?v0))) (= (f136 ?v_0 (f110 (f111 f112 ?v1) ?v2)) (f104 (f105 f106 (f139 ?v0 ?v1)) (f136 ?v_0 ?v2))))))
(assert (forall ((?v0 S87) (?v1 S62) (?v2 S72)) (let ((?v_0 (f141 f142 ?v0))) (= (f140 ?v_0 (f121 (f122 f123 ?v1) ?v2)) (f101 (f102 f103 (f143 ?v0 ?v1)) (f140 ?v_0 ?v2))))))
(assert (forall ((?v0 S90) (?v1 S62) (?v2 S72)) (let ((?v_0 (f145 f146 ?v0))) (= (f144 ?v_0 (f121 (f122 f123 ?v1) ?v2)) (f104 (f105 f106 (f147 ?v0 ?v1)) (f144 ?v_0 ?v2))))))
(assert (forall ((?v0 S5) (?v1 S5) (?v2 S5)) (= (= (f42 (f84 f97 ?v0) ?v1) (f42 (f84 f97 ?v2) ?v1)) (= ?v0 ?v2))))
(assert (forall ((?v0 S5) (?v1 S5) (?v2 S5)) (let ((?v_0 (f84 f97 ?v0))) (= (= (f42 ?v_0 ?v1) (f42 ?v_0 ?v2)) (= ?v1 ?v2)))))
(assert (forall ((?v0 S5) (?v1 S5) (?v2 S5)) (let ((?v_0 (f84 f97 ?v0))) (= (f42 (f84 f97 (f42 ?v_0 ?v1)) ?v2) (f42 ?v_0 (f42 (f84 f97 ?v1) ?v2))))))
(assert (forall ((?v0 S5) (?v1 S5) (?v2 S5)) (let ((?v_1 (f84 f97 ?v0)) (?v_0 (f84 f97 ?v1))) (= (f42 ?v_1 (f42 ?v_0 ?v2)) (f42 ?v_0 (f42 ?v_1 ?v2))))))
(assert (forall ((?v0 S5) (?v1 S5)) (= (f42 (f84 f97 ?v0) ?v1) (f42 (f84 f97 ?v1) ?v0))))
(assert (forall ((?v0 S2) (?v1 S23) (?v2 S2) (?v3 S23)) (= (= (f45 (f95 f96 ?v0) ?v1) (f45 (f95 f96 ?v2) ?v3)) (and (= ?v0 ?v2) (= ?v1 ?v3)))))
(assert (forall ((?v0 S66) (?v1 S62) (?v2 S66) (?v3 S62)) (= (= (f110 (f111 f112 ?v0) ?v1) (f110 (f111 f112 ?v2) ?v3)) (and (= ?v0 ?v2) (= ?v1 ?v3)))))
(assert (forall ((?v0 S62) (?v1 S72) (?v2 S62) (?v3 S72)) (= (= (f121 (f122 f123 ?v0) ?v1) (f121 (f122 f123 ?v2) ?v3)) (and (= ?v0 ?v2) (= ?v1 ?v3)))))
(assert (forall ((?v0 S5) (?v1 S47) (?v2 S5) (?v3 S47)) (= (= (f101 (f102 f103 ?v0) ?v1) (f101 (f102 f103 ?v2) ?v3)) (and (= ?v0 ?v2) (= ?v1 ?v3)))))
(assert (forall ((?v0 S11) (?v1 S30) (?v2 S11) (?v3 S30)) (= (= (f104 (f105 f106 ?v0) ?v1) (f104 (f105 f106 ?v2) ?v3)) (and (= ?v0 ?v2) (= ?v1 ?v3)))))
(assert (forall ((?v0 S2) (?v1 S23)) (not (= (f45 (f95 f96 ?v0) ?v1) ?v1))))
(assert (forall ((?v0 S66) (?v1 S62)) (not (= (f110 (f111 f112 ?v0) ?v1) ?v1))))
(assert (forall ((?v0 S62) (?v1 S72)) (not (= (f121 (f122 f123 ?v0) ?v1) ?v1))))
(assert (forall ((?v0 S5) (?v1 S47)) (not (= (f101 (f102 f103 ?v0) ?v1) ?v1))))
(assert (forall ((?v0 S11) (?v1 S30)) (not (= (f104 (f105 f106 ?v0) ?v1) ?v1))))
(assert (forall ((?v0 S23) (?v1 S2)) (not (= ?v0 (f45 (f95 f96 ?v1) ?v0)))))
(assert (forall ((?v0 S62) (?v1 S66)) (not (= ?v0 (f110 (f111 f112 ?v1) ?v0)))))
(assert (forall ((?v0 S72) (?v1 S62)) (not (= ?v0 (f121 (f122 f123 ?v1) ?v0)))))
(assert (forall ((?v0 S47) (?v1 S5)) (not (= ?v0 (f101 (f102 f103 ?v1) ?v0)))))
(assert (forall ((?v0 S30) (?v1 S11)) (not (= ?v0 (f104 (f105 f106 ?v1) ?v0)))))
(assert (forall ((?v0 S5) (?v1 S5)) (=> (= (f42 (f84 f97 ?v0) ?v1) ?v0) (= ?v1 f13))))
(assert (forall ((?v0 S5) (?v1 S5)) (= (= (f42 (f84 f97 ?v0) ?v1) f13) (and (= ?v0 f13) (= ?v1 f13)))))
(assert (forall ((?v0 S5)) (= (f42 (f84 f97 ?v0) f13) ?v0)))
(assert (forall ((?v0 S5)) (= (f42 (f84 f97 f13) ?v0) ?v0)))
(assert (forall ((?v0 S5) (?v1 S5)) (= (f42 (f84 f97 (f42 f43 ?v0)) ?v1) (f42 (f84 f97 ?v0) (f42 f43 ?v1)))))
(assert (forall ((?v0 S5) (?v1 S5)) (= (f42 (f84 f97 (f42 f43 ?v0)) ?v1) (f42 f43 (f42 (f84 f97 ?v0) ?v1)))))
(assert (forall ((?v0 S5) (?v1 S5)) (let ((?v_0 (f84 f97 ?v0))) (= (f42 ?v_0 (f42 f43 ?v1)) (f42 f43 (f42 ?v_0 ?v1))))))
(assert (forall ((?v0 S16) (?v1 S2) (?v2 S2) (?v3 S23)) (let ((?v_0 (f37 f38 ?v0))) (= (f35 (f36 ?v_0 ?v1) (f45 (f95 f96 ?v2) ?v3)) (f35 (f36 ?v_0 (f3 (f23 ?v0 ?v1) ?v2)) ?v3)))))
(assert (forall ((?v0 S46) (?v1 S5) (?v2 S5) (?v3 S47)) (let ((?v_0 (f87 f88 ?v0))) (= (f85 (f86 ?v_0 ?v1) (f101 (f102 f103 ?v2) ?v3)) (f85 (f86 ?v_0 (f42 (f84 ?v0 ?v1) ?v2)) ?v3)))))
(assert (forall ((?v0 S5) (?v1 S5) (?v2 S47)) (let ((?v_1 (f87 f88 f97)) (?v_0 (f84 f97 ?v0))) (= (f85 (f86 ?v_1 (f42 ?v_0 ?v1)) ?v2) (f42 ?v_0 (f85 (f86 ?v_1 ?v1) ?v2))))))
(assert (forall ((?v0 S42) (?v1 S11) (?v2 S30) (?v3 S11)) (let ((?v_0 (f81 f82 ?v0))) (= (f74 (f80 ?v_0 (f104 (f105 f106 ?v1) ?v2)) ?v3) (f74 (f75 ?v0 ?v1) (f74 (f80 ?v_0 ?v2) ?v3))))))
(assert (forall ((?v0 S2) (?v1 S5)) (= (f5 (f6 (f93 f94 f13) ?v0) ?v1) ?v0)))
(check-sat)
(exit)
